14835
1 1 1 1 1 1 1 1 1 1
8 3 3 6 6 2 4 9 1 0 5 3 3 8 0 3 6 0 0 2 5 3 3 8 5 4 7 0 9 7 8 2 3 6 6 2 4 3 6 7 8 3 3 8 6 2 4 2 1 7 1 9 3 2 9 5 5 9 4 4 2 1 3 7 3 3 0 1 0 2 5 3 3 8 5 4 7 2 7 7 8 9 3 2 8 5 5 9 2 0 1 9 9 1 9 5 6 9 4 4